Set parameter TokenServer to value "hpc-licenses.hpcc.usc.edu"
Set parameter TimeLimit to value 3600
Gurobi Optimizer version 9.5.1 build v9.5.1rc2 (linux64)
Thread count: 20 physical cores, 20 logical processors, using up to 20 threads
Optimize a model with 6007 rows, 4529 columns and 24534 nonzeros
Model fingerprint: 0xa9445c33
Variable types: 4506 continuous, 23 integer (23 binary)
Coefficient statistics:
  Matrix range     [1e+00, 1e+00]
  Objective range  [8e-04, 1e+00]
  Bounds range     [1e+00, 1e+00]
  RHS range        [1e+00, 1e+02]
Found heuristic solution: objective 255.4944981
Presolve removed 1520 rows and 1515 columns
Presolve time: 0.06s
Presolved: 4487 rows, 3014 columns, 21975 nonzeros
Variable types: 2994 continuous, 20 integer (20 binary)

Root relaxation: objective 2.702912e+02, 2452 iterations, 0.11 seconds (0.12 work units)

    Nodes    |    Current Node    |     Objective Bounds      |     Work
 Expl Unexpl |  Obj  Depth IntInf | Incumbent    BestBd   Gap | It/Node Time

     0     0  270.29118    0    2  255.49450  270.29118  5.79%     -    0s
H    0     0                     260.0331811  270.29118  3.94%     -    0s
     0     0  270.23194    0    2  260.03318  270.23194  3.92%     -    0s
H    0     0                     262.9976289  270.05086  2.68%     -    0s
     0     0  270.05086    0    2  262.99763  270.05086  2.68%     -    0s
     0     0  270.03860    0    2  262.99763  270.03860  2.68%     -    0s
     0     0  269.73100    0    3  262.99763  269.73100  2.56%     -    0s
     0     0  269.72027    0    3  262.99763  269.72027  2.56%     -    0s
     0     0  269.48859    0    3  262.99763  269.48859  2.47%     -    0s
     0     0  269.47810    0    4  262.99763  269.47810  2.46%     -    0s
     0     0  269.47810    0    4  262.99763  269.47810  2.46%     -    0s
     0     0  269.42240    0    4  262.99763  269.42240  2.44%     -    0s
     0     0  269.42240    0    4  262.99763  269.42240  2.44%     -    0s
     0     0  269.41473    0    4  262.99763  269.41473  2.44%     -    0s
     0     0  269.41473    0    2  262.99763  269.41473  2.44%     -    0s
     0     0  269.41336    0    4  262.99763  269.41336  2.44%     -    0s
     0     0  269.40691    0    7  262.99763  269.40691  2.44%     -    0s
     0     0  269.40417    0    7  262.99763  269.40417  2.44%     -    0s
H    0     0                     268.2502719  269.40057  0.43%     -    0s
     0     0  269.40057    0    4  268.25027  269.40057  0.43%     -    0s
     0     0  269.39450    0    7  268.25027  269.39450  0.43%     -    1s
     0     0  269.39450    0    2  268.25027  269.39450  0.43%     -    1s
     0     0  269.39450    0    2  268.25027  269.39450  0.43%     -    1s
     0     0  269.39450    0    2  268.25027  269.39450  0.43%     -    1s
     0     0  269.39450    0    2  268.25027  269.39450  0.43%     -    1s
     0     0  269.39450    0    2  268.25027  269.39450  0.43%     -    1s
     0     0  269.39450    0    2  268.25027  269.39450  0.43%     -    1s
     0     0  269.39450    0    2  268.25027  269.39450  0.43%     -    1s
     0     0  269.39450    0    4  268.25027  269.39450  0.43%     -    1s
     0     0  269.39450    0    2  268.25027  269.39450  0.43%     -    1s
     0     0  269.39450    0    4  268.25027  269.39450  0.43%     -    1s
     0     0  269.39450    0    4  268.25027  269.39450  0.43%     -    1s
     0     0  269.39450    0    4  268.25027  269.39450  0.43%     -    2s
     0     0  269.39246    0    7  268.25027  269.39246  0.43%     -    2s
     0     0  269.39058    0    7  268.25027  269.39058  0.43%     -    2s
     0     0  269.38964    0    7  268.25027  269.38964  0.42%     -    2s
     0     0  269.37018    0    7  268.25027  269.37018  0.42%     -    2s
     0     0  269.36560    0    7  268.25027  269.36560  0.42%     -    2s
     0     0  269.23796    0    7  268.25027  269.23796  0.37%     -    2s
     0     0  269.23796    0    6  268.25027  269.23796  0.37%     -    2s
H    0     0                     268.6444173  269.23796  0.22%     -    2s
     0     0  269.22970    0    6  268.64442  269.22970  0.22%     -    2s
     0     0  269.22970    0    6  268.64442  269.22970  0.22%     -    2s
     0     0  269.22970    0    7  268.64442  269.22970  0.22%     -    2s
     0     0  269.22970    0    7  268.64442  269.22970  0.22%     -    2s
     0     0  269.22970    0    7  268.64442  269.22970  0.22%     -    2s
     0     0  268.92107    0    7  268.64442  268.92107  0.10%     -    2s
     0     0  268.92107    0    7  268.64442  268.92107  0.10%     -    2s
     0     0  268.89717    0    4  268.64442  268.89717  0.09%     -    2s

Cutting planes:
  Gomory: 1
  MIR: 393
  Flow cover: 15
  RLT: 7
  Relax-and-lift: 6

Explored 1 nodes (6392 simplex iterations) in 2.93 seconds (1.35 work units)
Thread count was 20 (of 20 available processors)

Solution count 5: 268.644 268.25 262.998 ... 255.494

Optimal solution found (tolerance 1.00e-04)
Best objective 2.686444172805e+02, best bound 2.686444172805e+02, gap 0.0000%



#########node  1
V1.7
#########node  2
0.18367346938775517,0.8163265306122448
#########node  3
1.0,0.0


Total Solving Time 3.3799431324005127
obj value 268.64441728052157
Policy Regret train (Sum) 9.912030792665206
Best Treatment Found train (%) 57.599999999999994
treatment classification acc train (%) 52.0
Policy Regret test (Sum) 38.72832714295484
Best Treatment Found test (%) 81.04
treatment classification acc test (%) 50.74999999999999
